problems/VanDerWaerdenNumbers/VanDerWaerden-models/noch/O2/lingeling/model_1-k3l4n30-solution000001.solution
language Essence 1.3

letting p be
        partition({1, 4, 6, 7, 8, 11, 13, 17, 18, 21, 22, 24, 26, 29}, {2, 5, 9, 10, 12, 15},
                  {3, 14, 16, 19, 20, 23, 25, 27, 28, 30})
